; benchmark generated from python API
(set-info :status unknown)
(declare-fun p_1_6_1 () Int)
(declare-fun p_1_5_2 () Int)
(declare-fun p_1_3_4 () Int)
(declare-fun p_2_6_2 () Int)
(declare-fun p_2_1_3 () Int)
(declare-fun p_2_4_5 () Int)
(declare-fun p_3_6_3 () Int)
(declare-fun p_3_2_4 () Int)
(declare-fun p_3_5_1 () Int)
(declare-fun p_4_4_6 () Int)
(declare-fun p_4_3_5 () Int)
(declare-fun p_4_1_2 () Int)
(declare-fun p_5_5_6 () Int)
(declare-fun p_5_4_1 () Int)
(declare-fun p_5_2_3 () Int)
(assert
 (>= p_1_6_1 1))
(assert
 (<= p_1_6_1 3))
(assert
 (>= p_1_5_2 1))
(assert
 (<= p_1_5_2 3))
(assert
 (>= p_1_3_4 1))
(assert
 (<= p_1_3_4 3))
(assert
 (>= p_2_6_2 1))
(assert
 (<= p_2_6_2 3))
(assert
 (>= p_2_1_3 1))
(assert
 (<= p_2_1_3 3))
(assert
 (>= p_2_4_5 1))
(assert
 (<= p_2_4_5 3))
(assert
 (>= p_3_6_3 1))
(assert
 (<= p_3_6_3 3))
(assert
 (>= p_3_2_4 1))
(assert
 (<= p_3_2_4 3))
(assert
 (>= p_3_5_1 1))
(assert
 (<= p_3_5_1 3))
(assert
 (>= p_4_4_6 1))
(assert
 (<= p_4_4_6 3))
(assert
 (>= p_4_3_5 1))
(assert
 (<= p_4_3_5 3))
(assert
 (>= p_4_1_2 1))
(assert
 (<= p_4_1_2 3))
(assert
 (>= p_5_5_6 1))
(assert
 (<= p_5_5_6 3))
(assert
 (>= p_5_4_1 1))
(assert
 (<= p_5_4_1 3))
(assert
 (>= p_5_2_3 1))
(assert
 (<= p_5_2_3 3))
(assert
 (= p_1_3_4 1))
(assert
 (= p_1_5_2 2))
(assert
 (= p_1_6_1 3))
(assert
 (let (($x28 (= p_1_3_4 1)))
 (let (($x21 (= p_1_5_2 1)))
 (let (($x22 (= p_1_6_1 1)))
 ((_ pbeq 1 1 1 1) $x22 $x21 $x28)))))
(assert
 (let (($x18 (= p_1_3_4 2)))
 (let (($x24 (= p_1_5_2 2)))
 (let (($x19 (= p_1_6_1 2)))
 ((_ pbeq 1 1 1 1) $x19 $x24 $x18)))))
(assert
 (let (($x15 (= p_1_3_4 3)))
 (let (($x16 (= p_1_5_2 3)))
 (let (($x23 (= p_1_6_1 3)))
 ((_ pbeq 1 1 1 1) $x23 $x16 $x15)))))
(assert
 (let (($x163 (= p_2_4_5 1)))
 (let (($x162 (= p_2_1_3 1)))
 (let (($x12 (= p_2_6_2 1)))
 ((_ pbeq 1 1 1 1) $x12 $x162 $x163)))))
(assert
 (let (($x175 (= p_2_4_5 2)))
 (let (($x174 (= p_2_1_3 2)))
 (let (($x173 (= p_2_6_2 2)))
 ((_ pbeq 1 1 1 1) $x173 $x174 $x175)))))
(assert
 (let (($x141 (= p_2_4_5 3)))
 (let (($x195 (= p_2_1_3 3)))
 (let (($x196 (= p_2_6_2 3)))
 ((_ pbeq 1 1 1 1) $x196 $x195 $x141)))))
(assert
 (let (($x144 (= p_3_5_1 1)))
 (let (($x143 (= p_3_2_4 1)))
 (let (($x142 (= p_3_6_3 1)))
 ((_ pbeq 1 1 1 1) $x142 $x143 $x144)))))
(assert
 (let (($x182 (= p_3_5_1 2)))
 (let (($x181 (= p_3_2_4 2)))
 (let (($x178 (= p_3_6_3 2)))
 ((_ pbeq 1 1 1 1) $x178 $x181 $x182)))))
(assert
 (let (($x152 (= p_3_5_1 3)))
 (let (($x193 (= p_3_2_4 3)))
 (let (($x194 (= p_3_6_3 3)))
 ((_ pbeq 1 1 1 1) $x194 $x193 $x152)))))
(assert
 (let (($x157 (= p_4_1_2 1)))
 (let (($x156 (= p_4_3_5 1)))
 (let (($x155 (= p_4_4_6 1)))
 ((_ pbeq 1 1 1 1) $x155 $x156 $x157)))))
(assert
 (let (($x169 (= p_4_1_2 2)))
 (let (($x168 (= p_4_3_5 2)))
 (let (($x167 (= p_4_4_6 2)))
 ((_ pbeq 1 1 1 1) $x167 $x168 $x169)))))
(assert
 (let (($x190 (= p_4_1_2 3)))
 (let (($x191 (= p_4_3_5 3)))
 (let (($x192 (= p_4_4_6 3)))
 ((_ pbeq 1 1 1 1) $x192 $x191 $x190)))))
(assert
 (let (($x86 (= p_5_2_3 1)))
 (let (($x151 (= p_5_4_1 1)))
 (let (($x164 (= p_5_5_6 1)))
 ((_ pbeq 1 1 1 1) $x164 $x151 $x86)))))
(assert
 (let (($x51 (= p_5_2_3 2)))
 (let (($x65 (= p_5_4_1 2)))
 (let (($x72 (= p_5_5_6 2)))
 ((_ pbeq 1 1 1 1) $x72 $x65 $x51)))))
(assert
 (let (($x101 (= p_5_2_3 3)))
 (let (($x123 (= p_5_4_1 3)))
 (let (($x133 (= p_5_5_6 3)))
 ((_ pbeq 1 1 1 1) $x133 $x123 $x101)))))
(assert
 (let (($x151 (= p_5_4_1 1)))
 (let (($x157 (= p_4_1_2 1)))
 (let (($x144 (= p_3_5_1 1)))
 (let (($x162 (= p_2_1_3 1)))
 (let (($x22 (= p_1_6_1 1)))
 ((_ at-most 2) $x22 $x162 $x144 $x157 $x151)))))))
(assert
 (let (($x65 (= p_5_4_1 2)))
 (let (($x169 (= p_4_1_2 2)))
 (let (($x182 (= p_3_5_1 2)))
 (let (($x174 (= p_2_1_3 2)))
 (let (($x19 (= p_1_6_1 2)))
 ((_ at-most 2) $x19 $x174 $x182 $x169 $x65)))))))
(assert
 (let (($x123 (= p_5_4_1 3)))
 (let (($x190 (= p_4_1_2 3)))
 (let (($x152 (= p_3_5_1 3)))
 (let (($x195 (= p_2_1_3 3)))
 (let (($x23 (= p_1_6_1 3)))
 ((_ at-most 2) $x23 $x195 $x152 $x190 $x123)))))))
(assert
 (let (($x86 (= p_5_2_3 1)))
 (let (($x157 (= p_4_1_2 1)))
 (let (($x143 (= p_3_2_4 1)))
 (let (($x12 (= p_2_6_2 1)))
 (let (($x21 (= p_1_5_2 1)))
 ((_ at-most 2) $x21 $x12 $x143 $x157 $x86)))))))
(assert
 (let (($x51 (= p_5_2_3 2)))
 (let (($x169 (= p_4_1_2 2)))
 (let (($x181 (= p_3_2_4 2)))
 (let (($x173 (= p_2_6_2 2)))
 (let (($x24 (= p_1_5_2 2)))
 ((_ at-most 2) $x24 $x173 $x181 $x169 $x51)))))))
(assert
 (let (($x101 (= p_5_2_3 3)))
 (let (($x190 (= p_4_1_2 3)))
 (let (($x193 (= p_3_2_4 3)))
 (let (($x196 (= p_2_6_2 3)))
 (let (($x16 (= p_1_5_2 3)))
 ((_ at-most 2) $x16 $x196 $x193 $x190 $x101)))))))
(assert
 (let (($x86 (= p_5_2_3 1)))
 (let (($x156 (= p_4_3_5 1)))
 (let (($x142 (= p_3_6_3 1)))
 (let (($x162 (= p_2_1_3 1)))
 (let (($x28 (= p_1_3_4 1)))
 ((_ at-most 2) $x28 $x162 $x142 $x156 $x86)))))))
(assert
 (let (($x51 (= p_5_2_3 2)))
 (let (($x168 (= p_4_3_5 2)))
 (let (($x178 (= p_3_6_3 2)))
 (let (($x174 (= p_2_1_3 2)))
 (let (($x18 (= p_1_3_4 2)))
 ((_ at-most 2) $x18 $x174 $x178 $x168 $x51)))))))
(assert
 (let (($x101 (= p_5_2_3 3)))
 (let (($x191 (= p_4_3_5 3)))
 (let (($x194 (= p_3_6_3 3)))
 (let (($x195 (= p_2_1_3 3)))
 (let (($x15 (= p_1_3_4 3)))
 ((_ at-most 2) $x15 $x195 $x194 $x191 $x101)))))))
(assert
 (let (($x151 (= p_5_4_1 1)))
 (let (($x155 (= p_4_4_6 1)))
 (let (($x143 (= p_3_2_4 1)))
 (let (($x163 (= p_2_4_5 1)))
 (let (($x28 (= p_1_3_4 1)))
 ((_ at-most 2) $x28 $x163 $x143 $x155 $x151)))))))
(assert
 (let (($x65 (= p_5_4_1 2)))
 (let (($x167 (= p_4_4_6 2)))
 (let (($x181 (= p_3_2_4 2)))
 (let (($x175 (= p_2_4_5 2)))
 (let (($x18 (= p_1_3_4 2)))
 ((_ at-most 2) $x18 $x175 $x181 $x167 $x65)))))))
(assert
 (let (($x123 (= p_5_4_1 3)))
 (let (($x192 (= p_4_4_6 3)))
 (let (($x193 (= p_3_2_4 3)))
 (let (($x141 (= p_2_4_5 3)))
 (let (($x15 (= p_1_3_4 3)))
 ((_ at-most 2) $x15 $x141 $x193 $x192 $x123)))))))
(assert
 (let (($x164 (= p_5_5_6 1)))
 (let (($x156 (= p_4_3_5 1)))
 (let (($x144 (= p_3_5_1 1)))
 (let (($x163 (= p_2_4_5 1)))
 (let (($x21 (= p_1_5_2 1)))
 ((_ at-most 2) $x21 $x163 $x144 $x156 $x164)))))))
(assert
 (let (($x72 (= p_5_5_6 2)))
 (let (($x168 (= p_4_3_5 2)))
 (let (($x182 (= p_3_5_1 2)))
 (let (($x175 (= p_2_4_5 2)))
 (let (($x24 (= p_1_5_2 2)))
 ((_ at-most 2) $x24 $x175 $x182 $x168 $x72)))))))
(assert
 (let (($x133 (= p_5_5_6 3)))
 (let (($x191 (= p_4_3_5 3)))
 (let (($x152 (= p_3_5_1 3)))
 (let (($x141 (= p_2_4_5 3)))
 (let (($x16 (= p_1_5_2 3)))
 ((_ at-most 2) $x16 $x141 $x152 $x191 $x133)))))))
(assert
 (let (($x164 (= p_5_5_6 1)))
 (let (($x155 (= p_4_4_6 1)))
 (let (($x142 (= p_3_6_3 1)))
 (let (($x12 (= p_2_6_2 1)))
 (let (($x22 (= p_1_6_1 1)))
 ((_ at-most 2) $x22 $x12 $x142 $x155 $x164)))))))
(assert
 (let (($x72 (= p_5_5_6 2)))
 (let (($x167 (= p_4_4_6 2)))
 (let (($x178 (= p_3_6_3 2)))
 (let (($x173 (= p_2_6_2 2)))
 (let (($x19 (= p_1_6_1 2)))
 ((_ at-most 2) $x19 $x173 $x178 $x167 $x72)))))))
(assert
 (let (($x133 (= p_5_5_6 3)))
(let (($x192 (= p_4_4_6 3)))
(let (($x194 (= p_3_6_3 3)))
(let (($x196 (= p_2_6_2 3)))
(let (($x23 (= p_1_6_1 3)))
((_ at-most 2) $x23 $x196 $x194 $x192 $x133)))))))
(check-sat)
